c FILE			: uw_25.gr
c No. of vertices	: 25
c No. of directed edges	: 161
c Max. weight		: 100
c Min. weight		: 0
c A directed arc from u to v of weight w
c is represented below as ' a  u  v  w '
p sp 25 161
a 1 5 66
a 1 9 55
a 1 10 87
a 1 11 8
a 1 13 78
a 1 25 12
a 2 5 65
a 2 6 4
a 2 13 21
a 2 16 22
a 2 21 27
a 3 10 49
a 3 12 2
a 3 13 98
a 3 16 58
a 3 17 27
a 4 6 57
a 4 12 21
a 4 15 38
a 4 16 93
a 4 17 61
a 4 18 99
a 4 20 99
a 4 21 20
a 4 23 58
a 5 1 82
a 5 7 60
a 5 13 58
a 5 14 65
a 5 18 84
a 5 19 61
a 5 20 17
a 5 22 65
a 5 25 87
a 6 2 21
a 6 4 33
a 6 8 44
a 6 16 95
a 7 3 94
a 7 6 68
a 7 17 69
a 7 18 73
a 8 1 64
a 8 3 89
a 8 4 86
a 8 5 59
a 8 6 82
a 8 10 15
a 8 11 15
a 8 13 25
a 8 14 45
a 8 15 24
a 8 18 44
a 8 23 41
a 8 24 79
a 9 1 46
a 9 2 70
a 9 15 68
a 10 2 73
a 10 9 11
a 10 12 3
a 10 14 34
a 10 21 96
a 11 1 21
a 11 2 29
a 11 3 19
a 11 10 99
a 11 16 38
a 11 17 73
a 11 21 91
a 11 22 87
a 12 7 9
a 12 8 35
a 12 15 25
a 12 21 11
a 12 23 22
a 13 4 93
a 13 6 91
a 13 10 4
a 13 11 43
a 13 12 47
a 13 18 43
a 13 23 64
a 13 24 46
a 14 5 63
a 14 7 49
a 14 17 12
a 14 25 47
a 15 1 12
a 15 11 68
a 15 16 26
a 15 17 49
a 15 19 27
a 15 20 99
a 15 21 93
a 15 22 84
a 15 23 47
a 16 4 63
a 16 7 78
a 16 8 59
a 16 21 16
a 16 23 64
a 17 6 89
a 17 15 51
a 17 19 63
a 17 22 21
a 17 24 83
a 18 3 30
a 18 10 96
a 18 13 7
a 18 22 83
a 18 23 52
a 18 24 67
a 19 1 37
a 19 4 49
a 19 21 39
a 19 22 63
a 19 24 41
a 20 2 92
a 20 7 13
a 20 11 6
a 20 13 91
a 20 21 73
a 20 23 76
a 21 1 78
a 21 6 58
a 21 11 59
a 21 14 66
a 21 17 15
a 21 18 3
a 21 19 79
a 21 20 12
a 21 23 18
a 22 2 10
a 22 5 42
a 22 9 72
a 22 10 24
a 22 14 92
a 22 17 68
a 22 19 23
a 22 23 89
a 23 1 21
a 23 5 92
a 23 19 30
a 23 25 22
a 24 3 38
a 24 4 89
a 24 7 43
a 24 10 67
a 24 12 2
a 24 14 29
a 24 16 76
a 24 20 19
a 24 21 56
a 25 7 91
a 25 17 1
a 25 19 77
a 25 20 27
a 25 21 29
a 25 22 63
a 25 23 96
